NAME: instance_1838
TYPE: TSP
DIMENSION: 20
EDGE_WEIGHT_TYPE: EUC_2D
NODE_COORD_SECTION
0 29.12 78.23
1 69.39 57.33
2 34.81 47.91
3 21.36 0.82
4 83.53 62.50
5 5.29 40.75
6 53.78 25.08
7 40.65 69.04
8 9.50 59.48
9 27.73 43.13
10 77.84 48.21
11 91.02 2.67
12 16.77 99.30
13 22.49 57.85
14 17.90 35.60
15 37.14 61.52
16 38.41 60.23
17 41.96 27.21
18 89.02 68.87
19 32.55 37.07
EOF
